s td 16 65 80
b 1 1 2 3 4 5 6 7 8 9 10 11 12 13 15 16 17 18 20 21 22 23 24 25 26 27 28 31 32 33 37 38 40 41 42 43 45 47 48 50 51 52 53 54 55 56 57 58 59 61 62 63 64 65 66 67 68 71 73 74 75 76 77 78 79 80
b 2 1 2 3 4 6 7 8 9 10 11 12 13 15 16 17 18 20 21 22 23 24 25 26 27 28 31 32 33 35 37 38 40 41 42 43 45 47 48 50 51 52 53 54 55 56 57 58 59 61 62 63 64 65 66 67 68 71 73 74 75 76 77 78 79 80
b 3 1 2 3 4 6 7 8 9 10 11 12 13 15 16 17 18 20 21 22 23 24 26 27 28 31 32 33 35 37 38 40 41 42 43 45 46 47 48 50 51 52 53 54 55 56 57 58 59 61 62 63 64 65 66 67 68 71 73 74 75 76 77 78 79 80
b 4 1 2 3 4 6 7 8 9 10 11 12 13 15 16 17 18 20 21 22 23 24 26 27 28 29 31 32 33 35 37 38 40 42 43 45 46 47 48 50 51 52 53 54 55 56 57 58 59 61 62 63 64 65 66 67 68 71 73 74 75 76 77 78 79 80
b 5 1 2 3 4 6 7 8 9 10 11 12 13 15 16 17 18 20 21 22 23 24 26 27 28 29 31 32 35 37 38 40 42 43 45 46 47 48 50 51 52 53 54 55 56 57 58 59 61 62 63 64 65 66 67 68 69 71 73 74 75 76 77 78 79 80
b 6 1 2 3 8 10 11 12 13 14 21 22 23 24 26 27 37 38 40 46 50 53 56 58 59 61 62 63 64 65 66 69 71 76 77 79
b 7 1 2 3 4 6 7 8 9 10 11 12 13 15 16 17 18 19 20 21 22 23 24 26 27 28 29 31 32 35 37 38 40 42 43 45 46 47 48 50 51 52 53 54 55 56 57 58 59 61 63 64 65 66 67 68 69 71 73 74 75 76 77 78 79 80
b 8 1 2 3 4 6 7 8 9 10 11 12 13 15 16 17 18 19 20 21 22 23 24 26 27 28 29 31 35 37 38 43 45 46 47 48 50 51 52 53 54 55 56 57 58 59 61 63 64 65 66 67 68 69 71 72 73 74 75 76 77 79 80
b 9 1 2 3 4 6 7 8 9 10 11 12 15 16 17 18 19 20 21 22 23 24 26 27 29 31 34 35 37 43 45 46 47 48 50 51 52 53 54 55 56 57 59 61 63 64 66 68 71 72 73 74 75 77 79 80
b 10 1 2 4 8 10 11 12 15 17 18 19 20 21 23 29 31 34 35 37 39 43 45 46 47 48 51 53 54 56 57 59 61 64 66 68 71 72 73 75 79 80
b 11 3 7 8 9 10 13 16 27 28 29 31 32 37 38 43 45 46 48 50 51 53 54 56 57 60 62 64 66 67 68 69 71 73 74 75 76 78 79 80
b 12 1 2 3 4 5 6 7 8 9 10 11 12 13 15 16 17 18 20 21 22 23 24 25 26 27 28 31 32 33 37 38 40 41 42 43 44 45 47 48 50 51 52 53 54 56 57 58 59 61 62 63 64 65 66 67 68 71 73 74 75 76 77 78 79 80
b 13 1 2 4 5 6 7 8 9 10 12 13 15 16 17 18 20 21 22 23 25 26 27 28 32 33 36 37 38 40 42 44 45 47 48 50 51 53 54 56 57 58 59 61 62 63 64 65 66 67 68 71 73 75 77 78 79 80
b 14 1 2 5 6 7 8 9 10 12 13 15 16 18 20 21 22 23 25 26 27 28 32 33 36 37 40 44 45 47 48 49 53 54 56 57 59 61 62 63 64 65 66 67 68 73 75 77 78 79 80
b 15 1 2 5 6 8 9 13 15 16 20 21 23 25 26 27 28 30 32 36 37 40 44 45 47 48 49 53 54 56 59 61 63 64 66 73 75 77 79 80
b 16 2 3 4 5 7 10 11 12 16 18 22 24 27 28 37 40 41 44 45 47 48 51 54 57 58 59 61 62 63 64 70 75 76 77 79
1 2
1 12
2 3
3 4
4 5
5 6
5 7
5 11
7 8
8 9
9 10
12 13
12 16
13 14
14 15
